(set-logic HORN)
(declare-fun inv (Int Int Int Int) Bool)
(assert (forall ((w0 Int) (z0 Int) (y0 Int) (x0 Int))
  (=> (and (= x0 0) (= y0 0) (= z0 0) (= w0 0)) (inv x0 y0 z0 w0))))
(assert (forall ((w1 Int)
         (z1 Int)
         (y1 Int)
         (x1 Int)
         (w0 Int)
         (x0 Int)
         (y0 Int)
         (z0 Int))
  (let ((a!1 (ite (> (- y0 (* 10 x0)) 0) (+ z0 1) z0))
        (a!2 (ite (> (- y0 (* 10 x0)) 0) w0 (+ w0 1))))
    (=> (and (inv x0 y0 z0 w0)
             (= x1 (+ x0 1))
             (= y1 (+ y0 x0))
             (= z1 a!1)
             (= w1 a!2))
        (inv x1 y1 z1 w1)))))
(assert (forall ((w0 Int) (z0 Int) (x0 Int) (y0 Int))
  (=> (and (inv x0 y0 z0 w0) (> x0 100) (not (> z0 w0))) false)))
(check-sat)
